(set-logic ALL)
(set-option :fmf-bound true)
(set-option :produce-models true)
(declare-sort Object 0)

(declare-fun var14 (Bool) Bool)
(declare-fun var8 (Bool) Bool)
(declare-fun var25 (Bool) Bool)
(declare-fun var19 (Bool) Bool)
(declare-fun var21 (Bool) Bool)
(declare-fun var22 (Bool) Bool)
(declare-fun var9 (Bool) Bool)
(declare-fun var17 (Bool) Bool)
(declare-fun var23 (Bool) Bool)
(declare-fun var3 (Bool) Bool)
(declare-fun var13 (Bool) Bool)
(declare-fun var16 (Bool) Bool)
(declare-fun var12 (Bool) Bool)
(declare-fun var11 (Bool) Bool)
(declare-fun var6 (Bool) Bool)
(declare-fun var20 (Bool) Bool)
(declare-fun var4 (Bool) Bool)
(declare-fun var15 (Bool) Bool)
(declare-fun var7 (Bool) Bool)
(declare-fun var1 (Bool) Bool)
(declare-fun var18 (Bool) Bool)
(declare-fun var10 (Bool) Bool)
(declare-fun var5 (Bool) Bool)
(declare-fun var2 (Bool) Bool)
(declare-fun var24 (Bool) Bool)
(declare-fun GTE (Bool Bool) Bool)
(define-fun implies ((p Bool)(q Bool)) Bool (or (not p) q))

(assert (forall ((x Bool)) (not((var14 x)))))
(assert (forall ((x Bool)) (not((var8 x)))))
(assert (forall ((x Bool)) (not((not(var25 x))))))
(assert (exists ((x Bool)) ((var8 x))))
(assert (exists ((x Bool)) ((var19 x))))
(assert (forall ((x Bool)) (not(or (var21 x) (var22 x)))))
(assert (forall ((x Bool)) (not(or (var9 x) (not(var17 x))))))
(assert (forall ((x Bool)) (not(or (var23 x) (not(var3 x))))))
(assert (forall ((x Bool)) (not(or (not(var13 x)) (var16 x)))))
(assert (forall ((x Bool)) (not(or (not(var12 x)) (var11 x)))))
(assert (forall ((x Bool)) (not(or (not(var12 x)) (not(var6 x))))))
(assert (forall ((x Bool))  (exists ((x1 Bool)) (and(GTE x x1)  (implies (var20 x1) (var4 x))))))
(assert (forall ((x Bool))  (exists ((x1 Bool)) (and(GTE x x1)  (implies (var15 x1) (not(var22 x)))))))
(assert (forall ((x Bool))  (exists ((x1 Bool)) (and(GTE x x1)  (implies (not(var19 x1)) (not(var14 x)))))))
(assert (forall ((x Bool)) (not(or (not(var7 x)) (not(var1 x)) (not(var18 x))))))
(assert (forall ((x Bool)) (not(or (not(var10 x)) (not(var25 x)) (var21 x)))))
(assert (forall ((x Bool)) (not(or (not(var16 x)) (not(var7 x)) (var18 x)))))
(assert (forall ((x Bool)) (not(or (var7 x) (not(var19 x)) (var14 x)))))
(assert (forall ((x Bool)) (not(or (not(var4 x)) (not(var13 x)) (var25 x)))))
(assert (forall ((x Bool)) (not(or (var11 x) (not(var5 x)) (not(var8 x))))))
(assert (forall ((x Bool)) (not(or (var10 x) (not(var25 x)) (var5 x)))))
(assert (forall ((x Bool))  (exists ((x1 Bool)) (and(GTE x x1)  (implies (var14 x1) (or (var13 x) (not(var6 x))))))))
(assert (forall ((x Bool))  (exists ((x1 Bool)) (and(GTE x x1)  (implies (not(var15 x1)) (or (not(var8 x)) (not(var9 x))))))))
(assert (forall ((x Bool))  (exists ((x1 Bool)) (and(GTE x x1)  (implies (or (var7 x1) (var21 x1)) (var23 x))))))
(assert (forall ((x Bool))  (exists ((x1 Bool)) (and(GTE x x1)  (implies (or (not(var11 x1)) (var8 x1)) (var5 x))))))
(assert (forall ((x Bool)) (not(or (var1 x) (var14 x) (not(var13 x)) (var17 x)))))
(assert (forall ((x Bool)) (not(or (not(var14 x)) (var1 x) (var9 x) (var13 x)))))
(assert (forall ((x Bool)) (not(or (not(var2 x)) (var6 x) (var18 x) (not(var5 x))))))
(assert (forall ((x Bool)) (not(or (not(var9 x)) (not(var3 x)) (var20 x) (not(var17 x))))))
(assert (forall ((x Bool)) (not(or (not(var1 x)) (var11 x) (var18 x) (var15 x)))))
(assert (forall ((x Bool)) (not(or (not(var17 x)) (not(var24 x)) (not(var18 x)) (not(var11 x))))))
(assert (forall ((x Bool))  (exists ((x1 Bool)) (and(GTE x x1)  (implies (var1 x1) (or (not(var2 x)) (var10 x) (var11 x)))))))
(assert (forall ((x Bool))  (exists ((x1 Bool)) (and(GTE x x1)  (implies (not(var14 x1)) (or (not(var10 x)) (not(var13 x)) (var17 x)))))))
(assert (forall ((x Bool))  (exists ((x1 Bool)) (and(GTE x x1)  (implies (or (not(var7 x1)) (var19 x1)) (or (var14 x) (var17 x)))))))
(assert (forall ((x Bool)) (not(or (not(var13 x)) (not(var12 x)) (var3 x) (not(var25 x)) (var2 x)))))
(assert (forall ((x Bool)) (not(or (not(var24 x)) (not(var19 x)) (var11 x) (not(var13 x)) (var14 x)))))
(assert (forall ((x Bool)) (not(or (not(var8 x)) (var13 x) (var24 x) (not(var11 x)) (var14 x)))))
(assert (forall ((x Bool)) (not(or (not(var18 x)) (not(var1 x)) (not(var9 x)) (not(var21 x)) (not(var23 x))))))
(assert (forall ((x Bool)) (not(or (not(var6 x)) (not(var23 x)) (not(var2 x)) (var5 x) (not(var24 x))))))
(assert (forall ((x Bool))  (exists ((x1 Bool)) (and(GTE x x1)  (implies (or (not(var14 x1)) (not(var1 x1))) (or (var19 x) (var2 x) (var25 x)))))))
(assert (forall ((x Bool))  (exists ((x1 Bool)) (and(GTE x x1)  (implies (var9 x1) (or (var3 x) (not(var2 x)) (var4 x) (var1 x)))))))
(assert (forall ((x Bool)) (not(or (not(var11 x)) (var7 x) (not(var1 x)) (var15 x) (var22 x) (var2 x)))))
(assert (forall ((x Bool)) (not(or (var19 x) (var25 x) (var1 x) (var6 x) (not(var15 x)) (var2 x)))))
(assert (forall ((x Bool)) (not(or (var22 x) (var8 x) (not(var3 x)) (not(var12 x)) (not(var10 x)) (var2 x)))))
(assert (forall ((x Bool))  (exists ((x1 Bool)) (and(GTE x x1)  (implies (not(var22 x1)) (or (var24 x) (not(var10 x)) (not(var3 x)) (var16 x) (var18 x)))))))
(assert (forall ((x Bool)) (not(or (not(var16 x)) (not(var4 x)) (not(var22 x)) (var21 x) (var8 x) (not(var2 x)) (var24 x)))))
(assert (forall ((x Bool))  (exists ((x1 Bool)) (and(GTE x x1)  (implies (or (var17 x1) (var10 x1) (var13 x1)) (or (not(var1 x)) (not(var3 x)) (not(var19 x)) (var24 x)))))))
(assert (forall ((x Bool)) (not(or (not(var9 x)) (not(var12 x)) (var17 x) (var2 x) (var8 x) (not(var5 x)) (not(var1 x)) (var23 x)))))
(assert (forall ((x Bool)) (not(or (var24 x) (not(var4 x)) (not(var18 x)) (not(var14 x)) (var10 x) (var22 x)))))
(assert (exists ((x Bool)) ((not(var22 x)))))
(check-sat)
(get-model)
